\ENCODING=ISO-8859-1
\Problem name: ilog.cplex

Maximize
 obj: x1
Subject To
 c1:  x1 - 1.1 x3 - 1.3 x4 - 1.5 x5 + 1000000 x6 <= 1000000
 c3:  x1 - 1.2 x3 - 1.1 x4 - 1.1 x5 + 1000000 x11 <= 1000000
 c5:  x1 - x3 - 0.3 x4 - 0.5 x5 + 1000000 x13 <= 1000000
 c7:  x1 - x3 - x4 - x5 + 1000000 x15 <= 1000000
 c8:  x1 - 1.2 x3 - 1.8 x4 - 1.5 x5 + 1000000 x16 <= 1000000
 c9:  x6 + x11 + x13 + x15 + x16 >= 3
 c11: x3 + x4 + x5  = 1
Bounds
      x1 >= 4.94065645841247e-324
 0 <= x6 <= 1
 0 <= x11 <= 1
 0 <= x13 <= 1
 0 <= x15 <= 1
 0 <= x16 <= 1
Binaries
 x6  x11  x13  x15  x16 
End
